(set-logic QF_FPABV)
(declare-fun b34 () (_ FP 11 53))
(declare-fun b31 () (_ FP 11 53))
(declare-fun b22 () (_ FP 11 53))
(declare-fun b12 () (_ FP 11 53))
(declare-fun b27 () (_ FP 11 53))
(declare-fun b16 () (_ FP 11 53))
(declare-fun b10 () (_ FP 11 53))
(declare-fun b24 () (_ FP 11 53))
(define-fun .3 () RoundingMode roundNearestTiesToEven)
(define-fun .9 () (_ FP 11 53) b10)
(define-fun .10 () (_ FP 11 53) b16)
(define-fun .11 () (_ FP 11 53) (+ .3 .9 .10))
(define-fun .12 () (_ FP 11 53) b12)
(define-fun .13 () Bool (< .12 .11))
(define-fun .14 () Bool (<= .9 .12))
(define-fun .15 () Bool (and .13 .14))
(define-fun .16 () (_ FP 11 53) b24)
(define-fun .17 () Bool (<= .9 .16))
(define-fun .18 () Bool (and .15 .17))
(define-fun .19 () (_ FP 11 53) b27)
(define-fun .20 () Bool (<= .19 .9))
(define-fun .21 () Bool (and .18 .20))
(define-fun .22 () (_ FP 11 53) b22)
(define-fun .23 () (_ FP 11 53) b31)
(define-fun .24 () Bool (<= .22 .23))
(define-fun .25 () Bool (and .21 .24))
(define-fun .26 () (_ FP 11 53) b34)
(define-fun .27 () Bool (<= .26 .22))
(define-fun .28 () Bool (and .25 .27))
(assert .28)
(check-sat)
(exit)
